Maximize
  -9e-06 phi_1_fork_279_mg1_slots - 9e-05 phi_1_fork_279_mg1_hasBuffer - 9e-06 phi_2_add_934_mg1_slots - 9e-05 phi_2_add_934_mg1_hasBuffer - 9e-06 load_5_fork_15101_mg1_slots - 9e-05 load_5_fork_15101_mg1_hasBuffer - 9e-06 load_8_add_935_mg1_slots - 9e-05 load_8_add_935_mg1_hasBuffer - 9e-06 add_9_branch_167_mg1_slots - 9e-05 add_9_branch_167_mg1_hasBuffer - 9e-06 cst_2_add_1244_mg1_slots - 9e-05 cst_2_add_1244_mg1_hasBuffer - 9e-06 add_12_fork_383_mg1_slots - 9e-05 add_12_fork_383_mg1_hasBuffer - 9e-06 cst_3_icmp_1349_mg1_slots - 9e-05 cst_3_icmp_1349_mg1_hasBuffer - 9e-06 icmp_13_fork_486_mg1_slots - 9e-05 icmp_13_fork_486_mg1_hasBuffer - 9e-06 forkC_0_buffer_bx_op_054_mg1_slots - 9e-05 forkC_0_buffer_bx_op_054_mg1_hasBuffer - 9e-06 buffer_bx_op_0_branchC_675_mg1_slots - 9e-05 buffer_bx_op_0_branchC_675_mg1_hasBuffer - 9e-06 phiC_0_forkC_992_mg1_slots - 9e-05 phiC_0_forkC_992_mg1_hasBuffer - 9e-06 branch_0_phi_119_mg1_slots - 9e-05 branch_0_phi_119_mg1_hasBuffer - 9e-06 phi_n6_fork_1197_mg1_slots - 9e-05 phi_n6_fork_1197_mg1_hasBuffer - 9e-06 branch_1_phi_223_mg1_slots - 9e-05 branch_1_phi_223_mg1_hasBuffer - 9e-06 branchC_4_phiC_057_mg1_slots - 9e-05 branchC_4_phiC_057_mg1_hasBuffer - 9e-06 fork_2_load_527_mg1_slots - 9e-05 fork_2_load_527_mg1_hasBuffer - 9e-06 fork_2_store_037_mg1_slots - 9e-05 fork_2_store_037_mg1_hasBuffer - 9e-06 fork_2_add_1243_mg1_slots - 9e-05 fork_2_add_1243_mg1_hasBuffer - 9e-06 fork_3_icmp_1348_mg1_slots - 9e-05 fork_3_icmp_1348_mg1_hasBuffer - 9e-06 fork_3_branch_060_mg1_slots - 9e-05 fork_3_branch_060_mg1_hasBuffer - 9e-06 fork_4_branch_061_mg1_slots - 9e-05 fork_4_branch_061_mg1_hasBuffer - 9e-06 fork_4_phi_n665_mg1_slots - 9e-05 fork_4_phi_n665_mg1_hasBuffer - 9e-06 fork_4_branch_168_mg1_slots - 9e-05 fork_4_branch_168_mg1_hasBuffer - 9e-06 fork_4_branchC_472_mg1_slots - 9e-05 fork_4_branchC_472_mg1_hasBuffer - 9e-06 fork_4_branchC_676_mg1_slots - 9e-05 fork_4_branchC_676_mg1_hasBuffer - 9e-06 forkC_9_cst_241_mg1_slots - 9e-05 forkC_9_cst_241_mg1_hasBuffer - 9e-06 forkC_9_cst_346_mg1_slots - 9e-05 forkC_9_cst_346_mg1_hasBuffer - 9e-06 forkC_9_forkC_051_mg1_slots - 9e-05 forkC_9_forkC_051_mg1_hasBuffer - 9e-06 forkC_9_branchC_471_mg1_slots - 9e-05 forkC_9_branchC_471_mg1_hasBuffer - 9e-06 fork_11_phi_118_mg1_slots - 9e-05 fork_11_phi_118_mg1_hasBuffer - 9e-06 fork_11_phi_222_mg1_slots - 9e-05 fork_11_phi_222_mg1_hasBuffer - 9e-06 fork_11_phiC_056_mg1_slots - 9e-05 fork_11_phiC_056_mg1_hasBuffer - 9e-06 fork_15_load_831_mg1_slots - 9e-05 fork_15_load_831_mg1_hasBuffer - 9e-06 fork_15_store_038_mg1_slots - 9e-05 fork_15_store_038_mg1_hasBuffer + 0.9 x245
Subject to
  timePath_phi_1_out1_mg1 <= 4
  timePath_fork_2_in1_mg1 <= 4
  8 phi_1_fork_279_mg1_flop - timePath_phi_1_out1_mg1 + timePath_fork_2_in1_mg1 >= 0
  timePath_phi_2_out1_mg1 <= 4
  timePath_add_9_in1_mg1 <= 4
  8 phi_2_add_934_mg1_flop - timePath_phi_2_out1_mg1 + timePath_add_9_in1_mg1 >= 0
  timePath_load_5_out1_mg1 <= 4
  timePath_fork_15_in1_mg1 <= 4
  8 load_5_fork_15101_mg1_flop - timePath_load_5_out1_mg1 + timePath_fork_15_in1_mg1 >= 0
  timePath_load_8_out1_mg1 <= 4
  timePath_add_9_in2_mg1 <= 4
  8 load_8_add_935_mg1_flop - timePath_load_8_out1_mg1 + timePath_add_9_in2_mg1 >= 0
  timePath_add_9_out1_mg1 <= 4
  timePath_branch_1_in1_mg1 <= 4
  8 add_9_branch_167_mg1_flop - timePath_add_9_out1_mg1 + timePath_branch_1_in1_mg1 >= 0
  timePath_cst_2_out1_mg1 <= 4
  timePath_add_12_in2_mg1 <= 4
  8 cst_2_add_1244_mg1_flop - timePath_cst_2_out1_mg1 + timePath_add_12_in2_mg1 >= 0
  timePath_add_12_out1_mg1 <= 4
  timePath_fork_3_in1_mg1 <= 4
  8 add_12_fork_383_mg1_flop - timePath_add_12_out1_mg1 + timePath_fork_3_in1_mg1 >= 0
  timePath_cst_3_out1_mg1 <= 4
  timePath_icmp_13_in2_mg1 <= 4
  8 cst_3_icmp_1349_mg1_flop - timePath_cst_3_out1_mg1 + timePath_icmp_13_in2_mg1 >= 0
  timePath_icmp_13_out1_mg1 <= 4
  timePath_fork_4_in1_mg1 <= 4
  8 icmp_13_fork_486_mg1_flop - timePath_icmp_13_out1_mg1 + timePath_fork_4_in1_mg1 >= 0
  timePath_forkC_0_out1_mg1 <= 4
  timePath_buffer_bx_op_0_in1_mg1 <= 4
  8 forkC_0_buffer_bx_op_054_mg1_flop - timePath_forkC_0_out1_mg1 + timePath_buffer_bx_op_0_in1_mg1 >= 0
  timePath_buffer_bx_op_0_out1_mg1 <= 4
  timePath_branchC_6_in1_mg1 <= 4
  8 buffer_bx_op_0_branchC_675_mg1_flop - timePath_buffer_bx_op_0_out1_mg1 + timePath_branchC_6_in1_mg1 >= 0
  timePath_phiC_0_out1_mg1 <= 4
  timePath_forkC_9_in1_mg1 <= 4
  8 phiC_0_forkC_992_mg1_flop - timePath_phiC_0_out1_mg1 + timePath_forkC_9_in1_mg1 >= 0
  timePath_branch_0_out2_mg1 <= 4
  timePath_phi_1_in2_mg1 <= 4
  8 branch_0_phi_119_mg1_flop + timePath_phi_1_in2_mg1 - timePath_branch_0_out2_mg1 >= 0
  timePath_phi_n6_out1_mg1 <= 4
  timePath_fork_11_in1_mg1 <= 4
  8 phi_n6_fork_1197_mg1_flop - timePath_phi_n6_out1_mg1 + timePath_fork_11_in1_mg1 >= 0
  timePath_branch_1_out2_mg1 <= 4
  timePath_phi_2_in2_mg1 <= 4
  8 branch_1_phi_223_mg1_flop + timePath_phi_2_in2_mg1 - timePath_branch_1_out2_mg1 >= 0
  timePath_branchC_4_out2_mg1 <= 4
  timePath_phiC_0_in2_mg1 <= 4
  8 branchC_4_phiC_057_mg1_flop + timePath_phiC_0_in2_mg1 - timePath_branchC_4_out2_mg1 >= 0
  timePath_fork_2_out3_mg1 <= 4
  timePath_load_5_in2_mg1 <= 4
  8 fork_2_load_527_mg1_flop + timePath_load_5_in2_mg1 - timePath_fork_2_out3_mg1 >= 0
  timePath_fork_2_out1_mg1 <= 4
  timePath_store_0_in1_mg1 <= 4
  8 fork_2_store_037_mg1_flop + timePath_store_0_in1_mg1 - timePath_fork_2_out1_mg1 >= 0
  timePath_fork_2_out2_mg1 <= 4
  timePath_add_12_in1_mg1 <= 4
  8 fork_2_add_1243_mg1_flop + timePath_add_12_in1_mg1 - timePath_fork_2_out2_mg1 >= 0
  timePath_fork_3_out1_mg1 <= 4
  timePath_icmp_13_in1_mg1 <= 4
  8 fork_3_icmp_1348_mg1_flop + timePath_icmp_13_in1_mg1 - timePath_fork_3_out1_mg1 >= 0
  timePath_fork_3_out2_mg1 <= 4
  timePath_branch_0_in1_mg1 <= 4
  8 fork_3_branch_060_mg1_flop + timePath_branch_0_in1_mg1 - timePath_fork_3_out2_mg1 >= 0
  timePath_fork_4_out1_mg1 <= 4
  timePath_branch_0_in2_mg1 <= 4
  8 fork_4_branch_061_mg1_flop + timePath_branch_0_in2_mg1 - timePath_fork_4_out1_mg1 >= 0
  timePath_fork_4_out2_mg1 <= 4
  timePath_phi_n6_in2_mg1 <= 4
  8 fork_4_phi_n665_mg1_flop + timePath_phi_n6_in2_mg1 - timePath_fork_4_out2_mg1 >= 0
  timePath_fork_4_out3_mg1 <= 4
  timePath_branch_1_in2_mg1 <= 4
  8 fork_4_branch_168_mg1_flop + timePath_branch_1_in2_mg1 - timePath_fork_4_out3_mg1 >= 0
  timePath_fork_4_out4_mg1 <= 4
  timePath_branchC_4_in2_mg1 <= 4
  8 fork_4_branchC_472_mg1_flop + timePath_branchC_4_in2_mg1 - timePath_fork_4_out4_mg1 >= 0
  timePath_fork_4_out5_mg1 <= 4
  timePath_branchC_6_in2_mg1 <= 4
  8 fork_4_branchC_676_mg1_flop + timePath_branchC_6_in2_mg1 - timePath_fork_4_out5_mg1 >= 0
  timePath_forkC_9_out1_mg1 <= 4
  timePath_cst_2_in1_mg1 <= 4
  8 forkC_9_cst_241_mg1_flop + timePath_cst_2_in1_mg1 - timePath_forkC_9_out1_mg1 >= 0
  timePath_forkC_9_out3_mg1 <= 4
  timePath_cst_3_in1_mg1 <= 4
  8 forkC_9_cst_346_mg1_flop + timePath_cst_3_in1_mg1 - timePath_forkC_9_out3_mg1 >= 0
  timePath_forkC_9_out4_mg1 <= 4
  timePath_forkC_0_in1_mg1 <= 4
  8 forkC_9_forkC_051_mg1_flop + timePath_forkC_0_in1_mg1 - timePath_forkC_9_out4_mg1 >= 0
  timePath_forkC_9_out2_mg1 <= 4
  timePath_branchC_4_in1_mg1 <= 4
  8 forkC_9_branchC_471_mg1_flop + timePath_branchC_4_in1_mg1 - timePath_forkC_9_out2_mg1 >= 0
  timePath_fork_11_out1_mg1 <= 4
  timePath_phi_1_in1_mg1 <= 4
  8 fork_11_phi_118_mg1_flop + timePath_phi_1_in1_mg1 - timePath_fork_11_out1_mg1 >= 0
  timePath_fork_11_out2_mg1 <= 4
  timePath_phi_2_in1_mg1 <= 4
  8 fork_11_phi_222_mg1_flop + timePath_phi_2_in1_mg1 - timePath_fork_11_out2_mg1 >= 0
  timePath_fork_11_out3_mg1 <= 4
  timePath_phiC_0_in1_mg1 <= 4
  8 fork_11_phiC_056_mg1_flop + timePath_phiC_0_in1_mg1 - timePath_fork_11_out3_mg1 >= 0
  timePath_fork_15_out1_mg1 <= 4
  timePath_load_8_in2_mg1 <= 4
  8 fork_15_load_831_mg1_flop + timePath_load_8_in2_mg1 - timePath_fork_15_out1_mg1 >= 0
  timePath_fork_15_out2_mg1 <= 4
  timePath_store_0_in2_mg1 <= 4
  8 fork_15_store_038_mg1_flop + timePath_store_0_in2_mg1 - timePath_fork_15_out2_mg1 >= 0
  -timePath_phi_1_in1_mg1 + timePath_phi_1_out1_mg1 >= 0.366
  -timePath_phi_1_in2_mg1 + timePath_phi_1_out1_mg1 >= 0.366
  -timePath_phi_2_in1_mg1 + timePath_phi_2_out1_mg1 >= 0.366
  -timePath_phi_2_in2_mg1 + timePath_phi_2_out1_mg1 >= 0.366
  timePath_load_5_out1_mg1 = 0
  timePath_load_5_in2_mg1 <= 4
  timePath_load_8_out1_mg1 = 0
  timePath_load_8_in2_mg1 <= 4
  -timePath_add_9_in1_mg1 + timePath_add_9_out1_mg1 >= 1.693
  -timePath_add_9_in2_mg1 + timePath_add_9_out1_mg1 >= 1.693
  -timePath_cst_2_in1_mg1 + timePath_cst_2_out1_mg1 >= 0
  -timePath_add_12_in1_mg1 + timePath_add_12_out1_mg1 >= 1.693
  -timePath_add_12_in2_mg1 + timePath_add_12_out1_mg1 >= 1.693
  -timePath_cst_3_in1_mg1 + timePath_cst_3_out1_mg1 >= 0
  -timePath_icmp_13_in1_mg1 + timePath_icmp_13_out1_mg1 >= 1.53
  -timePath_icmp_13_in2_mg1 + timePath_icmp_13_out1_mg1 >= 1.53
  -timePath_forkC_0_in1_mg1 + timePath_forkC_0_out1_mg1 >= 0
  timePath_buffer_bx_op_0_out1_mg1 = 0
  timePath_buffer_bx_op_0_in1_mg1 <= 4
  -timePath_phiC_0_in1_mg1 + timePath_phiC_0_out1_mg1 >= 0.166
  -timePath_phiC_0_in2_mg1 + timePath_phiC_0_out1_mg1 >= 0.166
  -timePath_branch_0_in1_mg1 + timePath_branch_0_out2_mg1 >= 0
  -timePath_branch_0_in2_mg1 + timePath_branch_0_out2_mg1 >= 0
  -timePath_phi_n6_in2_mg1 + timePath_phi_n6_out1_mg1 >= 0.366
  -timePath_branch_1_in1_mg1 + timePath_branch_1_out2_mg1 >= 0
  -timePath_branch_1_in2_mg1 + timePath_branch_1_out2_mg1 >= 0
  -timePath_branchC_4_in1_mg1 + timePath_branchC_4_out2_mg1 >= 0
  -timePath_branchC_4_in2_mg1 + timePath_branchC_4_out2_mg1 >= 0
  -timePath_fork_2_in1_mg1 + timePath_fork_2_out1_mg1 >= 0
  -timePath_fork_2_in1_mg1 + timePath_fork_2_out2_mg1 >= 0
  -timePath_fork_2_in1_mg1 + timePath_fork_2_out3_mg1 >= 0
  -timePath_fork_3_in1_mg1 + timePath_fork_3_out1_mg1 >= 0
  -timePath_fork_3_in1_mg1 + timePath_fork_3_out2_mg1 >= 0
  -timePath_fork_4_in1_mg1 + timePath_fork_4_out1_mg1 >= 0
  -timePath_fork_4_in1_mg1 + timePath_fork_4_out2_mg1 >= 0
  -timePath_fork_4_in1_mg1 + timePath_fork_4_out3_mg1 >= 0
  -timePath_fork_4_in1_mg1 + timePath_fork_4_out4_mg1 >= 0
  -timePath_fork_4_in1_mg1 + timePath_fork_4_out5_mg1 >= 0
  -timePath_forkC_9_in1_mg1 + timePath_forkC_9_out1_mg1 >= 0
  -timePath_forkC_9_in1_mg1 + timePath_forkC_9_out2_mg1 >= 0
  -timePath_forkC_9_in1_mg1 + timePath_forkC_9_out3_mg1 >= 0
  -timePath_forkC_9_in1_mg1 + timePath_forkC_9_out4_mg1 >= 0
  -timePath_fork_11_in1_mg1 + timePath_fork_11_out1_mg1 >= 0
  -timePath_fork_11_in1_mg1 + timePath_fork_11_out2_mg1 >= 0
  -timePath_fork_11_in1_mg1 + timePath_fork_11_out3_mg1 >= 0
  -timePath_fork_15_in1_mg1 + timePath_fork_15_out1_mg1 >= 0
  -timePath_fork_15_in1_mg1 + timePath_fork_15_out2_mg1 >= 0
  64 phi_1_fork_279_mg1_flop - timeElastic_phi_1_out1_mg1 + timeElastic_fork_2_in1_mg1 >= 0
  -phi_1_fork_279_mg1_flop + phi_1_fork_279_mg1_slots >= 0
  0.99 phi_1_fork_279_mg1_slots >= 0
  64 phi_1_fork_279_mg1_flop - timeElastic_phi_2_out1_mg1 + timeElastic_add_9_in1_mg1 >= 0
  -phi_1_fork_279_mg1_flop + phi_1_fork_279_mg1_slots >= 0
  0.99 phi_1_fork_279_mg1_slots >= 0
  64 load_5_fork_15101_mg1_flop - timeElastic_load_5_out1_mg1 + timeElastic_fork_15_in1_mg1 >= 0
  -load_5_fork_15101_mg1_flop + load_5_fork_15101_mg1_slots >= 0
  -0.01 load_5_fork_15101_mg1_slots + load_5_fork_15101_mg1_hasBuffer >= 0
  64 load_8_add_935_mg1_flop - timeElastic_load_8_out1_mg1 + timeElastic_add_9_in2_mg1 >= 0
  -load_8_add_935_mg1_flop + load_8_add_935_mg1_slots >= 0
  -0.01 load_8_add_935_mg1_slots + load_8_add_935_mg1_hasBuffer >= 0
  64 add_9_branch_167_mg1_flop - timeElastic_add_9_out1_mg1 + timeElastic_branch_1_in1_mg1 >= 0
  -add_9_branch_167_mg1_flop + add_9_branch_167_mg1_slots >= 0
  -0.01 add_9_branch_167_mg1_slots + add_9_branch_167_mg1_hasBuffer >= 0
  64 cst_2_add_1244_mg1_flop - timeElastic_cst_2_out1_mg1 + timeElastic_add_12_in2_mg1 >= 0
  -cst_2_add_1244_mg1_flop + cst_2_add_1244_mg1_slots >= 0
  -0.01 cst_2_add_1244_mg1_slots + cst_2_add_1244_mg1_hasBuffer >= 0
  64 add_12_fork_383_mg1_flop - timeElastic_add_12_out1_mg1 + timeElastic_fork_3_in1_mg1 >= 0
  -add_12_fork_383_mg1_flop + add_12_fork_383_mg1_slots >= 0
  -0.01 add_12_fork_383_mg1_slots + add_12_fork_383_mg1_hasBuffer >= 0
  64 cst_3_icmp_1349_mg1_flop - timeElastic_cst_3_out1_mg1 + timeElastic_icmp_13_in2_mg1 >= 0
  -cst_3_icmp_1349_mg1_flop + cst_3_icmp_1349_mg1_slots >= 0
  -0.01 cst_3_icmp_1349_mg1_slots + cst_3_icmp_1349_mg1_hasBuffer >= 0
  64 icmp_13_fork_486_mg1_flop - timeElastic_icmp_13_out1_mg1 + timeElastic_fork_4_in1_mg1 >= 0
  -icmp_13_fork_486_mg1_flop + icmp_13_fork_486_mg1_slots >= 0
  -0.01 icmp_13_fork_486_mg1_slots + icmp_13_fork_486_mg1_hasBuffer >= 0
  64 forkC_0_buffer_bx_op_054_mg1_flop - timeElastic_forkC_0_out1_mg1 + timeElastic_buffer_bx_op_0_in1_mg1 >= 0
  -forkC_0_buffer_bx_op_054_mg1_flop + forkC_0_buffer_bx_op_054_mg1_slots >= 0
  -0.01 forkC_0_buffer_bx_op_054_mg1_slots + forkC_0_buffer_bx_op_054_mg1_hasBuffer >= 0
  64 buffer_bx_op_0_branchC_675_mg1_flop - timeElastic_buffer_bx_op_0_out1_mg1 + timeElastic_branchC_6_in1_mg1 >= 0
  -buffer_bx_op_0_branchC_675_mg1_flop + buffer_bx_op_0_branchC_675_mg1_slots >= 0
  -0.01 buffer_bx_op_0_branchC_675_mg1_slots + buffer_bx_op_0_branchC_675_mg1_hasBuffer >= 0
  64 phi_1_fork_279_mg1_flop - timeElastic_phiC_0_out1_mg1 + timeElastic_forkC_9_in1_mg1 >= 0
  -phi_1_fork_279_mg1_flop + phi_1_fork_279_mg1_slots >= 0
  0.99 phi_1_fork_279_mg1_slots >= 0
  64 branch_0_phi_119_mg1_flop + timeElastic_phi_1_in2_mg1 - timeElastic_branch_0_out2_mg1 >= 0
  -branch_0_phi_119_mg1_flop + branch_0_phi_119_mg1_slots >= 0
  -0.01 branch_0_phi_119_mg1_slots + branch_0_phi_119_mg1_hasBuffer >= 0
  64 phi_1_fork_279_mg1_flop - timeElastic_phi_n6_out1_mg1 + timeElastic_fork_11_in1_mg1 >= 0
  -phi_1_fork_279_mg1_flop + phi_1_fork_279_mg1_slots >= 0
  0.99 phi_1_fork_279_mg1_slots >= 0
  64 branch_1_phi_223_mg1_flop + timeElastic_phi_2_in2_mg1 - timeElastic_branch_1_out2_mg1 >= 0
  -branch_1_phi_223_mg1_flop + branch_1_phi_223_mg1_slots >= 0
  -0.01 branch_1_phi_223_mg1_slots + branch_1_phi_223_mg1_hasBuffer >= 0
  64 branchC_4_phiC_057_mg1_flop + timeElastic_phiC_0_in2_mg1 - timeElastic_branchC_4_out2_mg1 >= 0
  -branchC_4_phiC_057_mg1_flop + branchC_4_phiC_057_mg1_slots >= 0
  -0.01 branchC_4_phiC_057_mg1_slots + branchC_4_phiC_057_mg1_hasBuffer >= 0
  64 fork_2_load_527_mg1_flop + timeElastic_load_5_in2_mg1 - timeElastic_fork_2_out3_mg1 >= 0
  -fork_2_load_527_mg1_flop + fork_2_load_527_mg1_slots >= 0
  -0.01 fork_2_load_527_mg1_slots + fork_2_load_527_mg1_hasBuffer >= 0
  64 fork_2_store_037_mg1_flop + timeElastic_store_0_in1_mg1 - timeElastic_fork_2_out1_mg1 >= 0
  -fork_2_store_037_mg1_flop + fork_2_store_037_mg1_slots >= 0
  -0.01 fork_2_store_037_mg1_slots + fork_2_store_037_mg1_hasBuffer >= 0
  64 fork_2_add_1243_mg1_flop + timeElastic_add_12_in1_mg1 - timeElastic_fork_2_out2_mg1 >= 0
  -fork_2_add_1243_mg1_flop + fork_2_add_1243_mg1_slots >= 0
  -0.01 fork_2_add_1243_mg1_slots + fork_2_add_1243_mg1_hasBuffer >= 0
  64 fork_3_icmp_1348_mg1_flop + timeElastic_icmp_13_in1_mg1 - timeElastic_fork_3_out1_mg1 >= 0
  -fork_3_icmp_1348_mg1_flop + fork_3_icmp_1348_mg1_slots >= 0
  -0.01 fork_3_icmp_1348_mg1_slots + fork_3_icmp_1348_mg1_hasBuffer >= 0
  64 fork_3_branch_060_mg1_flop + timeElastic_branch_0_in1_mg1 - timeElastic_fork_3_out2_mg1 >= 0
  -fork_3_branch_060_mg1_flop + fork_3_branch_060_mg1_slots >= 0
  -0.01 fork_3_branch_060_mg1_slots + fork_3_branch_060_mg1_hasBuffer >= 0
  64 fork_4_branch_061_mg1_flop + timeElastic_branch_0_in2_mg1 - timeElastic_fork_4_out1_mg1 >= 0
  -fork_4_branch_061_mg1_flop + fork_4_branch_061_mg1_slots >= 0
  -0.01 fork_4_branch_061_mg1_slots + fork_4_branch_061_mg1_hasBuffer >= 0
  64 fork_4_phi_n665_mg1_flop + timeElastic_phi_n6_in2_mg1 - timeElastic_fork_4_out2_mg1 >= 0
  -fork_4_phi_n665_mg1_flop + fork_4_phi_n665_mg1_slots >= 0
  -0.01 fork_4_phi_n665_mg1_slots + fork_4_phi_n665_mg1_hasBuffer >= 0
  64 fork_4_branch_168_mg1_flop + timeElastic_branch_1_in2_mg1 - timeElastic_fork_4_out3_mg1 >= 0
  -fork_4_branch_168_mg1_flop + fork_4_branch_168_mg1_slots >= 0
  -0.01 fork_4_branch_168_mg1_slots + fork_4_branch_168_mg1_hasBuffer >= 0
  64 fork_4_branchC_472_mg1_flop + timeElastic_branchC_4_in2_mg1 - timeElastic_fork_4_out4_mg1 >= 0
  -fork_4_branchC_472_mg1_flop + fork_4_branchC_472_mg1_slots >= 0
  -0.01 fork_4_branchC_472_mg1_slots + fork_4_branchC_472_mg1_hasBuffer >= 0
  64 fork_4_branchC_676_mg1_flop + timeElastic_branchC_6_in2_mg1 - timeElastic_fork_4_out5_mg1 >= 0
  -fork_4_branchC_676_mg1_flop + fork_4_branchC_676_mg1_slots >= 0
  -0.01 fork_4_branchC_676_mg1_slots + fork_4_branchC_676_mg1_hasBuffer >= 0
  64 forkC_9_cst_241_mg1_flop + timeElastic_cst_2_in1_mg1 - timeElastic_forkC_9_out1_mg1 >= 0
  -forkC_9_cst_241_mg1_flop + forkC_9_cst_241_mg1_slots >= 0
  -0.01 forkC_9_cst_241_mg1_slots + forkC_9_cst_241_mg1_hasBuffer >= 0
  64 forkC_9_cst_346_mg1_flop + timeElastic_cst_3_in1_mg1 - timeElastic_forkC_9_out3_mg1 >= 0
  -forkC_9_cst_346_mg1_flop + forkC_9_cst_346_mg1_slots >= 0
  -0.01 forkC_9_cst_346_mg1_slots + forkC_9_cst_346_mg1_hasBuffer >= 0
  64 forkC_9_forkC_051_mg1_flop + timeElastic_forkC_0_in1_mg1 - timeElastic_forkC_9_out4_mg1 >= 0
  -forkC_9_forkC_051_mg1_flop + forkC_9_forkC_051_mg1_slots >= 0
  -0.01 forkC_9_forkC_051_mg1_slots + forkC_9_forkC_051_mg1_hasBuffer >= 0
  64 forkC_9_branchC_471_mg1_flop + timeElastic_branchC_4_in1_mg1 - timeElastic_forkC_9_out2_mg1 >= 0
  -forkC_9_branchC_471_mg1_flop + forkC_9_branchC_471_mg1_slots >= 0
  -0.01 forkC_9_branchC_471_mg1_slots + forkC_9_branchC_471_mg1_hasBuffer >= 0
  64 fork_11_phi_118_mg1_flop + timeElastic_phi_1_in1_mg1 - timeElastic_fork_11_out1_mg1 >= 0
  -fork_11_phi_118_mg1_flop + fork_11_phi_118_mg1_slots >= 0
  -0.01 fork_11_phi_118_mg1_slots + fork_11_phi_118_mg1_hasBuffer >= 0
  64 fork_11_phi_222_mg1_flop + timeElastic_phi_2_in1_mg1 - timeElastic_fork_11_out2_mg1 >= 0
  -fork_11_phi_222_mg1_flop + fork_11_phi_222_mg1_slots >= 0
  -0.01 fork_11_phi_222_mg1_slots + fork_11_phi_222_mg1_hasBuffer >= 0
  64 fork_11_phiC_056_mg1_flop + timeElastic_phiC_0_in1_mg1 - timeElastic_fork_11_out3_mg1 >= 0
  -fork_11_phiC_056_mg1_flop + fork_11_phiC_056_mg1_slots >= 0
  -0.01 fork_11_phiC_056_mg1_slots + fork_11_phiC_056_mg1_hasBuffer >= 0
  64 fork_15_load_831_mg1_flop + timeElastic_load_8_in2_mg1 - timeElastic_fork_15_out1_mg1 >= 0
  -fork_15_load_831_mg1_flop + fork_15_load_831_mg1_slots >= 0
  -0.01 fork_15_load_831_mg1_slots + fork_15_load_831_mg1_hasBuffer >= 0
  64 fork_15_store_038_mg1_flop + timeElastic_store_0_in2_mg1 - timeElastic_fork_15_out2_mg1 >= 0
  -fork_15_store_038_mg1_flop + fork_15_store_038_mg1_slots >= 0
  -0.01 fork_15_store_038_mg1_slots + fork_15_store_038_mg1_hasBuffer >= 0
  -timeElastic_phi_1_in1_mg1 + timeElastic_phi_1_out1_mg1 >= 1
  -timeElastic_phi_1_in2_mg1 + timeElastic_phi_1_out1_mg1 >= 1
  -timeElastic_phi_2_in1_mg1 + timeElastic_phi_2_out1_mg1 >= 1
  -timeElastic_phi_2_in2_mg1 + timeElastic_phi_2_out1_mg1 >= 1
  -timeElastic_load_5_in2_mg1 + timeElastic_load_5_out1_mg1 >= 1
  -timeElastic_load_8_in2_mg1 + timeElastic_load_8_out1_mg1 >= 1
  -timeElastic_add_9_in1_mg1 + timeElastic_add_9_out1_mg1 >= 1
  -timeElastic_add_9_in2_mg1 + timeElastic_add_9_out1_mg1 >= 1
  -timeElastic_cst_2_in1_mg1 + timeElastic_cst_2_out1_mg1 >= 1
  -timeElastic_add_12_in1_mg1 + timeElastic_add_12_out1_mg1 >= 1
  -timeElastic_add_12_in2_mg1 + timeElastic_add_12_out1_mg1 >= 1
  -timeElastic_cst_3_in1_mg1 + timeElastic_cst_3_out1_mg1 >= 1
  -timeElastic_icmp_13_in1_mg1 + timeElastic_icmp_13_out1_mg1 >= 1
  -timeElastic_icmp_13_in2_mg1 + timeElastic_icmp_13_out1_mg1 >= 1
  -timeElastic_forkC_0_in1_mg1 + timeElastic_forkC_0_out1_mg1 >= 1
  -timeElastic_buffer_bx_op_0_in1_mg1 + timeElastic_buffer_bx_op_0_out1_mg1 >= 1
  -timeElastic_phiC_0_in1_mg1 + timeElastic_phiC_0_out1_mg1 >= 1
  -timeElastic_phiC_0_in2_mg1 + timeElastic_phiC_0_out1_mg1 >= 1
  -timeElastic_branch_0_in1_mg1 + timeElastic_branch_0_out2_mg1 >= 1
  -timeElastic_branch_0_in2_mg1 + timeElastic_branch_0_out2_mg1 >= 1
  -timeElastic_phi_n6_in2_mg1 + timeElastic_phi_n6_out1_mg1 >= 1
  -timeElastic_branch_1_in1_mg1 + timeElastic_branch_1_out2_mg1 >= 1
  -timeElastic_branch_1_in2_mg1 + timeElastic_branch_1_out2_mg1 >= 1
  -timeElastic_branchC_4_in1_mg1 + timeElastic_branchC_4_out2_mg1 >= 1
  -timeElastic_branchC_4_in2_mg1 + timeElastic_branchC_4_out2_mg1 >= 1
  -timeElastic_fork_2_in1_mg1 + timeElastic_fork_2_out1_mg1 >= 1
  -timeElastic_fork_2_in1_mg1 + timeElastic_fork_2_out2_mg1 >= 1
  -timeElastic_fork_2_in1_mg1 + timeElastic_fork_2_out3_mg1 >= 1
  -timeElastic_fork_3_in1_mg1 + timeElastic_fork_3_out1_mg1 >= 1
  -timeElastic_fork_3_in1_mg1 + timeElastic_fork_3_out2_mg1 >= 1
  -timeElastic_fork_4_in1_mg1 + timeElastic_fork_4_out1_mg1 >= 1
  -timeElastic_fork_4_in1_mg1 + timeElastic_fork_4_out2_mg1 >= 1
  -timeElastic_fork_4_in1_mg1 + timeElastic_fork_4_out3_mg1 >= 1
  -timeElastic_fork_4_in1_mg1 + timeElastic_fork_4_out4_mg1 >= 1
  -timeElastic_fork_4_in1_mg1 + timeElastic_fork_4_out5_mg1 >= 1
  -timeElastic_forkC_9_in1_mg1 + timeElastic_forkC_9_out1_mg1 >= 1
  -timeElastic_forkC_9_in1_mg1 + timeElastic_forkC_9_out2_mg1 >= 1
  -timeElastic_forkC_9_in1_mg1 + timeElastic_forkC_9_out3_mg1 >= 1
  -timeElastic_forkC_9_in1_mg1 + timeElastic_forkC_9_out4_mg1 >= 1
  -timeElastic_fork_11_in1_mg1 + timeElastic_fork_11_out1_mg1 >= 1
  -timeElastic_fork_11_in1_mg1 + timeElastic_fork_11_out2_mg1 >= 1
  -timeElastic_fork_11_in1_mg1 + timeElastic_fork_11_out3_mg1 >= 1
  -timeElastic_fork_15_in1_mg1 + timeElastic_fork_15_out1_mg1 >= 1
  -timeElastic_fork_15_in1_mg1 + timeElastic_fork_15_out2_mg1 >= 1
  inRetimeTok_phi_1_mg1_submg1 - inRetimeTok_fork_2_mg1_submg1 + thTok_phi_1_fork_279_mg1_submg1 = 0
  phi_1_fork_279_mg1_flop + x245 - thTok_phi_1_fork_279_mg1_submg1 <= 1
  phi_1_fork_279_mg1_flop - phi_1_fork_279_mg1_slots + x245 + thTok_phi_1_fork_279_mg1_submg1 <= 1
  -phi_1_fork_279_mg1_slots + thTok_phi_1_fork_279_mg1_submg1 <= 0
  inRetimeTok_phi_2_mg1_submg1 - inRetimeTok_add_9_mg1_submg1 + thTok_phi_2_add_934_mg1_submg1 = 0
  phi_2_add_934_mg1_flop + x245 - thTok_phi_2_add_934_mg1_submg1 <= 1
  phi_2_add_934_mg1_flop - phi_2_add_934_mg1_slots + x245 + thTok_phi_2_add_934_mg1_submg1 <= 1
  -phi_2_add_934_mg1_slots + thTok_phi_2_add_934_mg1_submg1 <= 0
  outRetimeTok_load_5_mg1_submg1 - inRetimeTok_fork_15_mg1_submg1 + thTok_load_5_fork_15101_mg1_submg1 = 0
  load_5_fork_15101_mg1_flop + x245 - thTok_load_5_fork_15101_mg1_submg1 <= 1
  load_5_fork_15101_mg1_flop - load_5_fork_15101_mg1_slots + x245 + thTok_load_5_fork_15101_mg1_submg1 <= 1
  -load_5_fork_15101_mg1_slots + thTok_load_5_fork_15101_mg1_submg1 <= 0
  outRetimeTok_load_8_mg1_submg1 - inRetimeTok_add_9_mg1_submg1 + thTok_load_8_add_935_mg1_submg1 = 0
  load_8_add_935_mg1_flop + x245 - thTok_load_8_add_935_mg1_submg1 <= 1
  load_8_add_935_mg1_flop - load_8_add_935_mg1_slots + x245 + thTok_load_8_add_935_mg1_submg1 <= 1
  -load_8_add_935_mg1_slots + thTok_load_8_add_935_mg1_submg1 <= 0
  inRetimeTok_add_9_mg1_submg1 - inRetimeTok_branch_1_mg1_submg1 + thTok_add_9_branch_167_mg1_submg1 = 0
  add_9_branch_167_mg1_flop + x245 - thTok_add_9_branch_167_mg1_submg1 <= 1
  add_9_branch_167_mg1_flop - add_9_branch_167_mg1_slots + x245 + thTok_add_9_branch_167_mg1_submg1 <= 1
  -add_9_branch_167_mg1_slots + thTok_add_9_branch_167_mg1_submg1 <= 0
  inRetimeTok_cst_2_mg1_submg1 - inRetimeTok_add_12_mg1_submg1 + thTok_cst_2_add_1244_mg1_submg1 = 0
  cst_2_add_1244_mg1_flop + x245 - thTok_cst_2_add_1244_mg1_submg1 <= 1
  cst_2_add_1244_mg1_flop - cst_2_add_1244_mg1_slots + x245 + thTok_cst_2_add_1244_mg1_submg1 <= 1
  -cst_2_add_1244_mg1_slots + thTok_cst_2_add_1244_mg1_submg1 <= 0
  inRetimeTok_add_12_mg1_submg1 - inRetimeTok_fork_3_mg1_submg1 + thTok_add_12_fork_383_mg1_submg1 = 0
  add_12_fork_383_mg1_flop + x245 - thTok_add_12_fork_383_mg1_submg1 <= 1
  add_12_fork_383_mg1_flop - add_12_fork_383_mg1_slots + x245 + thTok_add_12_fork_383_mg1_submg1 <= 1
  -add_12_fork_383_mg1_slots + thTok_add_12_fork_383_mg1_submg1 <= 0
  inRetimeTok_cst_3_mg1_submg1 - inRetimeTok_icmp_13_mg1_submg1 + thTok_cst_3_icmp_1349_mg1_submg1 = 0
  cst_3_icmp_1349_mg1_flop + x245 - thTok_cst_3_icmp_1349_mg1_submg1 <= 1
  cst_3_icmp_1349_mg1_flop - cst_3_icmp_1349_mg1_slots + x245 + thTok_cst_3_icmp_1349_mg1_submg1 <= 1
  -cst_3_icmp_1349_mg1_slots + thTok_cst_3_icmp_1349_mg1_submg1 <= 0
  inRetimeTok_icmp_13_mg1_submg1 - inRetimeTok_fork_4_mg1_submg1 + thTok_icmp_13_fork_486_mg1_submg1 = 0
  icmp_13_fork_486_mg1_flop + x245 - thTok_icmp_13_fork_486_mg1_submg1 <= 1
  icmp_13_fork_486_mg1_flop - icmp_13_fork_486_mg1_slots + x245 + thTok_icmp_13_fork_486_mg1_submg1 <= 1
  -icmp_13_fork_486_mg1_slots + thTok_icmp_13_fork_486_mg1_submg1 <= 0
  inRetimeTok_forkC_0_mg1_submg1 - inRetimeTok_buffer_bx_op_0_mg1_submg1 + thTok_forkC_0_buffer_bx_op_054_mg1_submg1 = 0
  forkC_0_buffer_bx_op_054_mg1_flop + x245 - thTok_forkC_0_buffer_bx_op_054_mg1_submg1 <= 1
  forkC_0_buffer_bx_op_054_mg1_flop - forkC_0_buffer_bx_op_054_mg1_slots + x245 + thTok_forkC_0_buffer_bx_op_054_mg1_submg1 <= 1
  -forkC_0_buffer_bx_op_054_mg1_slots + thTok_forkC_0_buffer_bx_op_054_mg1_submg1 <= 0
  outRetimeTok_buffer_bx_op_0_mg1_submg1 - inRetimeTok_branchC_6_mg1_submg1 + thTok_buffer_bx_op_0_branchC_675_mg1_submg1 = 0
  buffer_bx_op_0_branchC_675_mg1_flop + x245 - thTok_buffer_bx_op_0_branchC_675_mg1_submg1 <= 1
  buffer_bx_op_0_branchC_675_mg1_flop - buffer_bx_op_0_branchC_675_mg1_slots + x245 + thTok_buffer_bx_op_0_branchC_675_mg1_submg1 <= 1
  -buffer_bx_op_0_branchC_675_mg1_slots + thTok_buffer_bx_op_0_branchC_675_mg1_submg1 <= 0
  inRetimeTok_phiC_0_mg1_submg1 - inRetimeTok_forkC_9_mg1_submg1 + thTok_phiC_0_forkC_992_mg1_submg1 = 0
  phiC_0_forkC_992_mg1_flop + x245 - thTok_phiC_0_forkC_992_mg1_submg1 <= 1
  phiC_0_forkC_992_mg1_flop - phiC_0_forkC_992_mg1_slots + x245 + thTok_phiC_0_forkC_992_mg1_submg1 <= 1
  -phiC_0_forkC_992_mg1_slots + thTok_phiC_0_forkC_992_mg1_submg1 <= 0
  -inRetimeTok_phi_1_mg1_submg1 + inRetimeTok_branch_0_mg1_submg1 + thTok_branch_0_phi_119_mg1_submg1 = 1
  branch_0_phi_119_mg1_flop + x245 - thTok_branch_0_phi_119_mg1_submg1 <= 1
  branch_0_phi_119_mg1_flop - branch_0_phi_119_mg1_slots + x245 + thTok_branch_0_phi_119_mg1_submg1 <= 1
  -branch_0_phi_119_mg1_slots + thTok_branch_0_phi_119_mg1_submg1 <= 0
  inRetimeTok_phi_n6_mg1_submg1 - inRetimeTok_fork_11_mg1_submg1 + thTok_phi_n6_fork_1197_mg1_submg1 = 0
  phi_n6_fork_1197_mg1_flop + x245 - thTok_phi_n6_fork_1197_mg1_submg1 <= 1
  phi_n6_fork_1197_mg1_flop - phi_n6_fork_1197_mg1_slots + x245 + thTok_phi_n6_fork_1197_mg1_submg1 <= 1
  -phi_n6_fork_1197_mg1_slots + thTok_phi_n6_fork_1197_mg1_submg1 <= 0
  -inRetimeTok_phi_2_mg1_submg1 + inRetimeTok_branch_1_mg1_submg1 + thTok_branch_1_phi_223_mg1_submg1 = 1
  branch_1_phi_223_mg1_flop + x245 - thTok_branch_1_phi_223_mg1_submg1 <= 1
  branch_1_phi_223_mg1_flop - branch_1_phi_223_mg1_slots + x245 + thTok_branch_1_phi_223_mg1_submg1 <= 1
  -branch_1_phi_223_mg1_slots + thTok_branch_1_phi_223_mg1_submg1 <= 0
  -inRetimeTok_phiC_0_mg1_submg1 + inRetimeTok_branchC_4_mg1_submg1 + thTok_branchC_4_phiC_057_mg1_submg1 = 1
  branchC_4_phiC_057_mg1_flop + x245 - thTok_branchC_4_phiC_057_mg1_submg1 <= 1
  branchC_4_phiC_057_mg1_flop - branchC_4_phiC_057_mg1_slots + x245 + thTok_branchC_4_phiC_057_mg1_submg1 <= 1
  -branchC_4_phiC_057_mg1_slots + thTok_branchC_4_phiC_057_mg1_submg1 <= 0
  -inRetimeTok_load_5_mg1_submg1 + inRetimeTok_fork_2_mg1_submg1 + thTok_fork_2_load_527_mg1_submg1 = 0
  fork_2_load_527_mg1_flop + x245 - thTok_fork_2_load_527_mg1_submg1 <= 1
  fork_2_load_527_mg1_flop - fork_2_load_527_mg1_slots + x245 + thTok_fork_2_load_527_mg1_submg1 <= 1
  -fork_2_load_527_mg1_slots + thTok_fork_2_load_527_mg1_submg1 <= 0
  -inRetimeTok_add_12_mg1_submg1 + inRetimeTok_fork_2_mg1_submg1 + thTok_fork_2_add_1243_mg1_submg1 = 0
  fork_2_add_1243_mg1_flop + x245 - thTok_fork_2_add_1243_mg1_submg1 <= 1
  fork_2_add_1243_mg1_flop - fork_2_add_1243_mg1_slots + x245 + thTok_fork_2_add_1243_mg1_submg1 <= 1
  -fork_2_add_1243_mg1_slots + thTok_fork_2_add_1243_mg1_submg1 <= 0
  -inRetimeTok_icmp_13_mg1_submg1 + inRetimeTok_fork_3_mg1_submg1 + thTok_fork_3_icmp_1348_mg1_submg1 = 0
  fork_3_icmp_1348_mg1_flop + x245 - thTok_fork_3_icmp_1348_mg1_submg1 <= 1
  fork_3_icmp_1348_mg1_flop - fork_3_icmp_1348_mg1_slots + x245 + thTok_fork_3_icmp_1348_mg1_submg1 <= 1
  -fork_3_icmp_1348_mg1_slots + thTok_fork_3_icmp_1348_mg1_submg1 <= 0
  -inRetimeTok_branch_0_mg1_submg1 + inRetimeTok_fork_3_mg1_submg1 + thTok_fork_3_branch_060_mg1_submg1 = 0
  fork_3_branch_060_mg1_flop + x245 - thTok_fork_3_branch_060_mg1_submg1 <= 1
  fork_3_branch_060_mg1_flop - fork_3_branch_060_mg1_slots + x245 + thTok_fork_3_branch_060_mg1_submg1 <= 1
  -fork_3_branch_060_mg1_slots + thTok_fork_3_branch_060_mg1_submg1 <= 0
  -inRetimeTok_branch_0_mg1_submg1 + inRetimeTok_fork_4_mg1_submg1 + thTok_fork_4_branch_061_mg1_submg1 = 0
  fork_4_branch_061_mg1_flop + x245 - thTok_fork_4_branch_061_mg1_submg1 <= 1
  fork_4_branch_061_mg1_flop - fork_4_branch_061_mg1_slots + x245 + thTok_fork_4_branch_061_mg1_submg1 <= 1
  -fork_4_branch_061_mg1_slots + thTok_fork_4_branch_061_mg1_submg1 <= 0
  -inRetimeTok_phi_n6_mg1_submg1 + inRetimeTok_fork_4_mg1_submg1 + thTok_fork_4_phi_n665_mg1_submg1 = 1
  fork_4_phi_n665_mg1_flop + x245 - thTok_fork_4_phi_n665_mg1_submg1 <= 1
  fork_4_phi_n665_mg1_flop - fork_4_phi_n665_mg1_slots + x245 + thTok_fork_4_phi_n665_mg1_submg1 <= 1
  -fork_4_phi_n665_mg1_slots + thTok_fork_4_phi_n665_mg1_submg1 <= 0
  -inRetimeTok_branch_1_mg1_submg1 + inRetimeTok_fork_4_mg1_submg1 + thTok_fork_4_branch_168_mg1_submg1 = 0
  fork_4_branch_168_mg1_flop + x245 - thTok_fork_4_branch_168_mg1_submg1 <= 1
  fork_4_branch_168_mg1_flop - fork_4_branch_168_mg1_slots + x245 + thTok_fork_4_branch_168_mg1_submg1 <= 1
  -fork_4_branch_168_mg1_slots + thTok_fork_4_branch_168_mg1_submg1 <= 0
  -inRetimeTok_branchC_4_mg1_submg1 + inRetimeTok_fork_4_mg1_submg1 + thTok_fork_4_branchC_472_mg1_submg1 = 0
  fork_4_branchC_472_mg1_flop + x245 - thTok_fork_4_branchC_472_mg1_submg1 <= 1
  fork_4_branchC_472_mg1_flop - fork_4_branchC_472_mg1_slots + x245 + thTok_fork_4_branchC_472_mg1_submg1 <= 1
  -fork_4_branchC_472_mg1_slots + thTok_fork_4_branchC_472_mg1_submg1 <= 0
  -inRetimeTok_branchC_6_mg1_submg1 + inRetimeTok_fork_4_mg1_submg1 + thTok_fork_4_branchC_676_mg1_submg1 = 0
  fork_4_branchC_676_mg1_flop + x245 - thTok_fork_4_branchC_676_mg1_submg1 <= 1
  fork_4_branchC_676_mg1_flop - fork_4_branchC_676_mg1_slots + x245 + thTok_fork_4_branchC_676_mg1_submg1 <= 1
  -fork_4_branchC_676_mg1_slots + thTok_fork_4_branchC_676_mg1_submg1 <= 0
  -inRetimeTok_cst_2_mg1_submg1 + inRetimeTok_forkC_9_mg1_submg1 + thTok_forkC_9_cst_241_mg1_submg1 = 0
  forkC_9_cst_241_mg1_flop + x245 - thTok_forkC_9_cst_241_mg1_submg1 <= 1
  forkC_9_cst_241_mg1_flop - forkC_9_cst_241_mg1_slots + x245 + thTok_forkC_9_cst_241_mg1_submg1 <= 1
  -forkC_9_cst_241_mg1_slots + thTok_forkC_9_cst_241_mg1_submg1 <= 0
  -inRetimeTok_cst_3_mg1_submg1 + inRetimeTok_forkC_9_mg1_submg1 + thTok_forkC_9_cst_346_mg1_submg1 = 0
  forkC_9_cst_346_mg1_flop + x245 - thTok_forkC_9_cst_346_mg1_submg1 <= 1
  forkC_9_cst_346_mg1_flop - forkC_9_cst_346_mg1_slots + x245 + thTok_forkC_9_cst_346_mg1_submg1 <= 1
  -forkC_9_cst_346_mg1_slots + thTok_forkC_9_cst_346_mg1_submg1 <= 0
  -inRetimeTok_forkC_0_mg1_submg1 + inRetimeTok_forkC_9_mg1_submg1 + thTok_forkC_9_forkC_051_mg1_submg1 = 0
  forkC_9_forkC_051_mg1_flop + x245 - thTok_forkC_9_forkC_051_mg1_submg1 <= 1
  forkC_9_forkC_051_mg1_flop - forkC_9_forkC_051_mg1_slots + x245 + thTok_forkC_9_forkC_051_mg1_submg1 <= 1
  -forkC_9_forkC_051_mg1_slots + thTok_forkC_9_forkC_051_mg1_submg1 <= 0
  -inRetimeTok_branchC_4_mg1_submg1 + inRetimeTok_forkC_9_mg1_submg1 + thTok_forkC_9_branchC_471_mg1_submg1 = 0
  forkC_9_branchC_471_mg1_flop + x245 - thTok_forkC_9_branchC_471_mg1_submg1 <= 1
  forkC_9_branchC_471_mg1_flop - forkC_9_branchC_471_mg1_slots + x245 + thTok_forkC_9_branchC_471_mg1_submg1 <= 1
  -forkC_9_branchC_471_mg1_slots + thTok_forkC_9_branchC_471_mg1_submg1 <= 0
  -inRetimeTok_phi_1_mg1_submg1 + inRetimeTok_fork_11_mg1_submg1 + thTok_fork_11_phi_118_mg1_submg1 = 0
  fork_11_phi_118_mg1_flop + x245 - thTok_fork_11_phi_118_mg1_submg1 <= 1
  fork_11_phi_118_mg1_flop - fork_11_phi_118_mg1_slots + x245 + thTok_fork_11_phi_118_mg1_submg1 <= 1
  -fork_11_phi_118_mg1_slots + thTok_fork_11_phi_118_mg1_submg1 <= 0
  -inRetimeTok_phi_2_mg1_submg1 + inRetimeTok_fork_11_mg1_submg1 + thTok_fork_11_phi_222_mg1_submg1 = 0
  fork_11_phi_222_mg1_flop + x245 - thTok_fork_11_phi_222_mg1_submg1 <= 1
  fork_11_phi_222_mg1_flop - fork_11_phi_222_mg1_slots + x245 + thTok_fork_11_phi_222_mg1_submg1 <= 1
  -fork_11_phi_222_mg1_slots + thTok_fork_11_phi_222_mg1_submg1 <= 0
  -inRetimeTok_phiC_0_mg1_submg1 + inRetimeTok_fork_11_mg1_submg1 + thTok_fork_11_phiC_056_mg1_submg1 = 0
  fork_11_phiC_056_mg1_flop + x245 - thTok_fork_11_phiC_056_mg1_submg1 <= 1
  fork_11_phiC_056_mg1_flop - fork_11_phiC_056_mg1_slots + x245 + thTok_fork_11_phiC_056_mg1_submg1 <= 1
  -fork_11_phiC_056_mg1_slots + thTok_fork_11_phiC_056_mg1_submg1 <= 0
  -inRetimeTok_load_8_mg1_submg1 + inRetimeTok_fork_15_mg1_submg1 + thTok_fork_15_load_831_mg1_submg1 = 0
  fork_15_load_831_mg1_flop + x245 - thTok_fork_15_load_831_mg1_submg1 <= 1
  fork_15_load_831_mg1_flop - fork_15_load_831_mg1_slots + x245 + thTok_fork_15_load_831_mg1_submg1 <= 1
  -fork_15_load_831_mg1_slots + thTok_fork_15_load_831_mg1_submg1 <= 0
  -inRetimeTok_load_5_mg1_submg1 + outRetimeTok_load_5_mg1_submg1 <= 2
  -2 x245 - inRetimeTok_load_5_mg1_submg1 + outRetimeTok_load_5_mg1_submg1 >= 0
  -inRetimeTok_load_8_mg1_submg1 + outRetimeTok_load_8_mg1_submg1 <= 5
  -5 x245 - inRetimeTok_load_8_mg1_submg1 + outRetimeTok_load_8_mg1_submg1 >= 0
  -inRetimeTok_buffer_bx_op_0_mg1_submg1 + outRetimeTok_buffer_bx_op_0_mg1_submg1 <= 1
  -x245 - inRetimeTok_buffer_bx_op_0_mg1_submg1 + outRetimeTok_buffer_bx_op_0_mg1_submg1 >= 0
General
  phi_1_fork_279_mg1_slots phi_2_add_934_mg1_slots load_5_fork_15101_mg1_slots load_8_add_935_mg1_slots add_9_branch_167_mg1_slots cst_2_add_1244_mg1_slots add_12_fork_383_mg1_slots cst_3_icmp_1349_mg1_slots icmp_13_fork_486_mg1_slots forkC_0_buffer_bx_op_054_mg1_slots buffer_bx_op_0_branchC_675_mg1_slots phiC_0_forkC_992_mg1_slots branch_0_phi_119_mg1_slots phi_n6_fork_1197_mg1_slots branch_1_phi_223_mg1_slots branchC_4_phiC_057_mg1_slots fork_2_load_527_mg1_slots fork_2_store_037_mg1_slots fork_2_add_1243_mg1_slots fork_3_icmp_1348_mg1_slots fork_3_branch_060_mg1_slots fork_4_branch_061_mg1_slots fork_4_phi_n665_mg1_slots fork_4_branch_168_mg1_slots fork_4_branchC_472_mg1_slots fork_4_branchC_676_mg1_slots forkC_9_cst_241_mg1_slots forkC_9_cst_346_mg1_slots forkC_9_forkC_051_mg1_slots forkC_9_branchC_471_mg1_slots fork_11_phi_118_mg1_slots fork_11_phi_222_mg1_slots fork_11_phiC_056_mg1_slots fork_15_load_831_mg1_slots fork_15_store_038_mg1_slots
Binary
  phi_1_fork_279_mg1_flop phi_1_fork_279_mg1_hasBuffer phi_2_add_934_mg1_flop phi_2_add_934_mg1_hasBuffer load_5_fork_15101_mg1_flop load_5_fork_15101_mg1_hasBuffer load_8_add_935_mg1_flop load_8_add_935_mg1_hasBuffer add_9_branch_167_mg1_flop add_9_branch_167_mg1_hasBuffer cst_2_add_1244_mg1_flop cst_2_add_1244_mg1_hasBuffer add_12_fork_383_mg1_flop add_12_fork_383_mg1_hasBuffer cst_3_icmp_1349_mg1_flop cst_3_icmp_1349_mg1_hasBuffer icmp_13_fork_486_mg1_flop icmp_13_fork_486_mg1_hasBuffer forkC_0_buffer_bx_op_054_mg1_flop forkC_0_buffer_bx_op_054_mg1_hasBuffer buffer_bx_op_0_branchC_675_mg1_flop buffer_bx_op_0_branchC_675_mg1_hasBuffer phiC_0_forkC_992_mg1_flop phiC_0_forkC_992_mg1_hasBuffer branch_0_phi_119_mg1_flop branch_0_phi_119_mg1_hasBuffer phi_n6_fork_1197_mg1_flop phi_n6_fork_1197_mg1_hasBuffer branch_1_phi_223_mg1_flop branch_1_phi_223_mg1_hasBuffer branchC_4_phiC_057_mg1_flop branchC_4_phiC_057_mg1_hasBuffer fork_2_load_527_mg1_flop fork_2_load_527_mg1_hasBuffer fork_2_store_037_mg1_flop fork_2_store_037_mg1_hasBuffer fork_2_add_1243_mg1_flop fork_2_add_1243_mg1_hasBuffer fork_3_icmp_1348_mg1_flop fork_3_icmp_1348_mg1_hasBuffer fork_3_branch_060_mg1_flop fork_3_branch_060_mg1_hasBuffer fork_4_branch_061_mg1_flop fork_4_branch_061_mg1_hasBuffer fork_4_phi_n665_mg1_flop fork_4_phi_n665_mg1_hasBuffer fork_4_branch_168_mg1_flop fork_4_branch_168_mg1_hasBuffer fork_4_branchC_472_mg1_flop fork_4_branchC_472_mg1_hasBuffer fork_4_branchC_676_mg1_flop fork_4_branchC_676_mg1_hasBuffer forkC_9_cst_241_mg1_flop forkC_9_cst_241_mg1_hasBuffer forkC_9_cst_346_mg1_flop forkC_9_cst_346_mg1_hasBuffer forkC_9_forkC_051_mg1_flop forkC_9_forkC_051_mg1_hasBuffer forkC_9_branchC_471_mg1_flop forkC_9_branchC_471_mg1_hasBuffer fork_11_phi_118_mg1_flop fork_11_phi_118_mg1_hasBuffer fork_11_phi_222_mg1_flop fork_11_phi_222_mg1_hasBuffer fork_11_phiC_056_mg1_flop fork_11_phiC_056_mg1_hasBuffer fork_15_load_831_mg1_flop fork_15_load_831_mg1_hasBuffer fork_15_store_038_mg1_flop fork_15_store_038_mg1_hasBuffer
End
